p tdp 44 85
24 43
4 39
8 11
17 26
6 24
9 26
29 30
16 32
7 40
22 40
35 36
9 15
14 23
29 39
20 29
10 21
36 42
28 44
24 31
14 17
23 34
17 21
41 42
5 12
33 44
3 38
1 20
29 44
2 41
14 27
6 13
12 37
2 38
25 40
8 38
18 19
17 33
13 32
25 37
7 34
7 16
3 18
2 29
3 21
9 13
23 29
24 30
22 36
8 41
16 25
19 25
2 20
39 42
2 34
35 40
4 44
33 38
14 29
2 16
16 34
20 41
5 41
2 6
16 26
6 23
5 26
17 23
4 17
13 23
36 37
21 36
22 32
20 34
38 41
14 31
6 31
25 36
21 32
21 26
15 44
39 44
34 36
30 37
26 30
20 23
